objective value:                                  -33
t_x15                                               1 	(obj:-1)
t_x191                                              1 	(obj:-1)
t_x207                                              1 	(obj:-1)
t_x237                                              1 	(obj:-1)
t_x283                                              1 	(obj:-1)
t_x312                                              1 	(obj:-1)
t_x349                                              1 	(obj:-1)
t_x355                                              1 	(obj:-1)
t_x425                                              1 	(obj:-1)
t_x435                                              1 	(obj:-1)
t_x578                                              1 	(obj:-1)
t_x623                                              1 	(obj:-1)
t_x662                                              1 	(obj:-1)
t_x715                                              1 	(obj:-1)
t_x761                                              1 	(obj:-1)
t_x873                                              1 	(obj:-1)
t_x889                                              1 	(obj:-1)
t_x939                                              1 	(obj:-1)
t_x995                                              1 	(obj:-1)
t_x1009                                             1 	(obj:-1)
t_x1053                                             1 	(obj:-1)
t_x1067                                             1 	(obj:-1)
t_x1105                                             1 	(obj:-1)
t_x1164                                             1 	(obj:-1)
t_x1183                                             1 	(obj:-1)
t_x1232                                             1 	(obj:-1)
t_x1255                                             1 	(obj:-1)
t_x1272                                             1 	(obj:-1)
t_x1283                                             1 	(obj:-1)
t_x1330                                             1 	(obj:-1)
t_x1383                                             1 	(obj:-1)
t_x1398                                             1 	(obj:-1)
t_x1411                                             1 	(obj:-1)
t_x1437                                             1 	(obj:0)
t_x1443                                             1 	(obj:0)
t_x1464                                             1 	(obj:0)
t_x1478                                             1 	(obj:0)
t_x1501                                             1 	(obj:0)
t_x1504                                             1 	(obj:0)
t_x1528                                             1 	(obj:0)
t_x1543                                             1 	(obj:0)
t_x1554                                             1 	(obj:0)
t_x1577                                             1 	(obj:0)
t_x1619                                             1 	(obj:0)
t_x1638                                             1 	(obj:0)
t_x1663                                             1 	(obj:0)
t_x1664                                             1 	(obj:0)
t_x1705                                             1 	(obj:0)
t_x1714                                             1 	(obj:0)
t_x1743                                             1 	(obj:0)
t_x1751                                             1 	(obj:0)
t_x1763                                             1 	(obj:0)
t_x1798                                             1 	(obj:0)
t_x1816                                             1 	(obj:0)
t_x1833                                             1 	(obj:0)
t_x1846                                             1 	(obj:0)
t_x1884                                             1 	(obj:0)
t_x1900                                             1 	(obj:0)
t_x1917                                             1 	(obj:0)
t_x1933                                             1 	(obj:0)
t_x1945                                             1 	(obj:0)
t_x1979                                             1 	(obj:0)
t_x1996                                             1 	(obj:0)
t_x2025                                             1 	(obj:0)
t_x2032                                             1 	(obj:0)
t_x2076                                             1 	(obj:0)
t_x2095                                             1 	(obj:0)
t_x2111                                             1 	(obj:0)
t_x2120                                             1 	(obj:0)
t_x2136                                             1 	(obj:0)
t_x2167                                             1 	(obj:0)
t_x2214                                             1 	(obj:0)
t_x2236                                             1 	(obj:0)
t_x2251                                             1 	(obj:0)
t_x2268                                             1 	(obj:0)
t_x2279                                             1 	(obj:0)
t_x2305                                             1 	(obj:0)
t_x2321                                             1 	(obj:0)
t_x2363                                             1 	(obj:0)
t_x2379                                             1 	(obj:0)
